objective value:                                 -334
t_x17                                               1 	(obj:-100)
t_x144                                              1 	(obj:-100)
t_x219                                              1 	(obj:-100)
t_x233                                              1 	(obj:-100)
t_y17_202                                           1 	(obj:1)
t_y144_211                                          1 	(obj:1)
t_y218_233                                          1 	(obj:1)
t_y144_193                                          1 	(obj:1)
t_y17_189                                           1 	(obj:1)
t_y73_144                                           1 	(obj:1)
t_y43_144                                           1 	(obj:1)
t_y56_219                                           1 	(obj:1)
t_y144_241                                          1 	(obj:1)
t_y84_233                                           1 	(obj:1)
t_y39_233                                           1 	(obj:1)
t_y150_219                                          1 	(obj:1)
t_y17_36                                            1 	(obj:1)
t_y36_144                                           1 	(obj:1)
t_y17_242                                           1 	(obj:1)
t_y27_144                                           1 	(obj:1)
t_y17_236                                           1 	(obj:1)
t_y30_233                                           1 	(obj:1)
t_y85_219                                           1 	(obj:1)
t_y144_213                                          1 	(obj:1)
t_y11_219                                           1 	(obj:1)
t_y17_48                                            1 	(obj:1)
t_y144_180                                          1 	(obj:1)
t_y17_28                                            1 	(obj:1)
t_y143_233                                          1 	(obj:1)
t_y17_159                                           1 	(obj:1)
t_y8_17                                             1 	(obj:1)
t_y17_130                                           1 	(obj:1)
t_y144_225                                          1 	(obj:1)
t_y33_144                                           1 	(obj:1)
t_y198_219                                          1 	(obj:1)
t_y210_233                                          1 	(obj:1)
t_y10_219                                           1 	(obj:1)
t_y32_233                                           1 	(obj:1)
t_y17_123                                           1 	(obj:1)
t_y153_233                                          1 	(obj:1)
t_y17_103                                           1 	(obj:1)
t_y17_129                                           1 	(obj:1)
t_y78_233                                           1 	(obj:1)
t_y35_233                                           1 	(obj:1)
t_y45_219                                           1 	(obj:1)
t_y205_233                                          1 	(obj:1)
t_y115_233                                          1 	(obj:1)
t_y174_219                                          1 	(obj:1)
t_y17_25                                            1 	(obj:1)
t_y142_233                                          1 	(obj:1)
t_y161_233                                          1 	(obj:1)
t_y40_144                                           1 	(obj:1)
t_y17_128                                           1 	(obj:1)
t_y178_219                                          1 	(obj:1)
t_y196_233                                          1 	(obj:1)
t_y116_233                                          1 	(obj:1)
t_y50_144                                           1 	(obj:1)
t_y82_144                                           1 	(obj:1)
t_y123_233                                          1 	(obj:1)
t_y132_144                                          1 	(obj:1)
t_y17_155                                           1 	(obj:1)
t_y152_233                                          1 	(obj:1)
t_y55_144                                           1 	(obj:1)
t_y163_233                                          1 	(obj:1)
t_y176_233                                          1 	(obj:1)
t_y111_233                                          1 	(obj:1)
t_y144_166                                          1 	(obj:1)
t_y34_219                                           1 	(obj:1)
t_y45_144                                           1 	(obj:1)
t_y160_233                                          1 	(obj:1)
